DIMENSION: 7
NODE_COORD_SECTION
1 -33.4680679062 -236.9551073520
2 303.3921302578 193.8841899805
3 -925.8555133080 -24.7403787416
4 213.2337246531 -6312.6984126984
5 35.7541899441 -227.3671350031
6 614.7239263804 -251.8987341772
7 -7.7607113985 440.3453689168
EOF